60
1 0 4
2 0 7
2 1 3
3 0 5
3 1 6
3 2 8
4 0 7
4 1 1
4 2 4
4 3 10
5 0 8
5 1 4
5 2 10
5 3 3
5 4 3
6 0 2
6 1 4
6 2 10
6 3 2
6 4 1
6 5 8
7 0 8
7 1 4
7 2 9
7 3 4
7 4 2
7 5 2
7 6 4
8 0 7
8 1 3
8 2 5
8 3 7
8 4 4
8 5 6
8 6 6
8 7 3
9 0 8
9 1 2
9 2 2
9 3 6
9 4 2
9 5 5
9 6 1
9 7 9
9 8 5
10 0 8
10 1 5
10 2 9
10 3 6
10 4 2
10 5 4
10 6 5
10 7 8
10 8 2
10 9 10
11 0 6
11 1 7
11 2 8
11 3 7
11 4 8
11 5 10
11 6 9
11 7 1
11 8 4
11 9 9
11 10 3
12 0 4
12 1 2
12 2 3
12 3 6
12 4 9
12 5 3
12 6 6
12 7 1
12 8 2
12 9 2
12 10 3
12 11 6
13 0 7
13 1 7
13 2 2
13 3 2
13 4 6
13 5 2
13 6 4
13 7 6
13 8 6
13 9 8
13 10 9
13 11 6
13 12 2
14 0 8
14 1 3
14 2 5
14 3 5
14 4 1
14 5 9
14 6 6
14 7 6
14 8 2
14 9 1
14 10 7
14 11 1
14 12 2
14 13 8
15 0 5
15 1 8
15 2 9
15 3 8
15 4 3
15 5 2
15 6 4
15 7 1
15 8 3
15 9 7
15 10 8
15 11 5
15 12 2
15 13 3
15 14 4
16 0 10
16 1 9
16 2 5
16 3 4
16 4 4
16 5 7
16 6 6
16 7 5
16 8 4
16 9 9
16 10 6
16 11 6
16 12 1
16 13 7
16 14 8
16 15 8
17 0 10
17 1 3
17 2 6
17 3 8
17 4 7
17 5 6
17 6 6
17 7 8
17 8 6
17 9 7
17 10 10
17 11 7
17 12 4
17 13 6
17 14 1
17 15 9
17 16 10
18 0 3
18 1 9
18 2 1
18 3 3
18 4 8
18 5 6
18 6 4
18 7 1
18 8 1
18 9 10
18 10 9
18 11 3
18 12 5
18 13 7
18 14 10
18 15 3
18 16 10
18 17 4
19 0 10
19 1 9
19 2 9
19 3 6
19 4 4
19 5 10
19 6 9
19 7 9
19 8 9
19 9 10
19 10 3
19 11 2
19 12 9
19 13 8
19 14 8
19 15 4
19 16 5
19 17 8
19 18 1
20 0 3
20 1 2
20 2 1
20 3 10
20 4 3
20 5 9
20 6 3
20 7 8
20 8 5
20 9 9
20 10 4
20 11 1
20 12 10
20 13 8
20 14 9
20 15 7
20 16 1
20 17 10
20 18 3
20 19 6
21 0 4
21 1 7
21 2 6
21 3 3
21 4 7
21 5 8
21 6 5
21 7 3
21 8 6
21 9 9
21 10 4
21 11 10
21 12 10
21 13 7
21 14 5
21 15 2
21 16 4
21 17 7
21 18 9
21 19 10
21 20 7
22 0 6
22 1 2
22 2 4
22 3 5
22 4 3
22 5 10
22 6 6
22 7 5
22 8 2
22 9 10
22 10 1
22 11 6
22 12 9
22 13 6
22 14 10
22 15 4
22 16 8
22 17 5
22 18 2
22 19 5
22 20 1
22 21 9
23 0 5
23 1 10
23 2 8
23 3 1
23 4 3
23 5 4
23 6 6
23 7 6
23 8 9
23 9 4
23 10 7
23 11 4
23 12 8
23 13 9
23 14 1
23 15 9
23 16 10
23 17 10
23 18 3
23 19 5
23 20 3
23 21 10
23 22 2
24 0 3
24 1 6
24 2 7
24 3 6
24 4 6
24 5 9
24 6 8
24 7 5
24 8 8
24 9 5
24 10 3
24 11 1
24 12 3
24 13 3
24 14 10
24 15 2
24 16 10
24 17 3
24 18 6
24 19 1
24 20 3
24 21 9
24 22 10
24 23 7
25 0 8
25 1 1
25 2 4
25 3 8
25 4 8
25 5 8
25 6 4
25 7 1
25 8 10
25 9 9
25 10 4
25 11 5
25 12 10
25 13 9
25 14 8
25 15 9
25 16 4
25 17 1
25 18 4
25 19 3
25 20 10
25 21 3
25 22 8
25 23 5
25 24 2
26 0 4
26 1 5
26 2 5
26 3 1
26 4 10
26 5 1
26 6 7
26 7 6
26 8 6
26 9 6
26 10 3
26 11 4
26 12 3
26 13 9
26 14 1
26 15 4
26 16 8
26 17 3
26 18 5
26 19 10
26 20 10
26 21 10
26 22 7
26 23 10
26 24 7
26 25 5
27 0 4
27 1 2
27 2 2
27 3 9
27 4 1
27 5 8
27 6 1
27 7 2
27 8 10
27 9 3
27 10 1
27 11 3
27 12 9
27 13 7
27 14 3
27 15 5
27 16 7
27 17 8
27 18 5
27 19 6
27 20 2
27 21 8
27 22 5
27 23 4
27 24 3
27 25 5
27 26 3
28 0 7
28 1 9
28 2 9
28 3 9
28 4 10
28 5 7
28 6 1
28 7 6
28 8 8
28 9 5
28 10 5
28 11 10
28 12 4
28 13 3
28 14 5
28 15 3
28 16 6
28 17 2
28 18 9
28 19 7
28 20 3
28 21 4
28 22 9
28 23 5
28 24 2
28 25 3
28 26 7
28 27 2
29 0 6
29 1 9
29 2 7
29 3 5
29 4 8
29 5 7
29 6 7
29 7 1
29 8 2
29 9 2
29 10 7
29 11 7
29 12 8
29 13 2
29 14 5
29 15 4
29 16 2
29 17 4
29 18 6
29 19 7
29 20 1
29 21 3
29 22 5
29 23 7
29 24 6
29 25 3
29 26 2
29 27 7
29 28 7
30 0 4
30 1 8
30 2 7
30 3 3
30 4 2
30 5 8
30 6 10
30 7 2
30 8 1
30 9 4
30 10 4
30 11 5
30 12 6
30 13 9
30 14 8
30 15 8
30 16 6
30 17 5
30 18 7
30 19 3
30 20 4
30 21 1
30 22 7
30 23 10
30 24 4
30 25 6
30 26 2
30 27 7
30 28 4
30 29 10
31 0 1
31 1 9
31 2 6
31 3 3
31 4 4
31 5 3
31 6 6
31 7 5
31 8 2
31 9 9
31 10 5
31 11 7
31 12 7
31 13 10
31 14 3
31 15 6
31 16 6
31 17 2
31 18 6
31 19 10
31 20 7
31 21 4
31 22 9
31 23 4
31 24 4
31 25 3
31 26 4
31 27 3
31 28 2
31 29 2
31 30 2
32 0 2
32 1 6
32 2 1
32 3 4
32 4 10
32 5 3
32 6 2
32 7 8
32 8 10
32 9 4
32 10 10
32 11 5
32 12 9
32 13 9
32 14 2
32 15 9
32 16 9
32 17 7
32 18 7
32 19 3
32 20 3
32 21 1
32 22 9
32 23 9
32 24 3
32 25 1
32 26 10
32 27 2
32 28 7
32 29 4
32 30 3
32 31 8
33 0 10
33 1 6
33 2 1
33 3 7
33 4 2
33 5 6
33 6 1
33 7 5
33 8 2
33 9 9
33 10 1
33 11 5
33 12 3
33 13 5
33 14 4
33 15 10
33 16 4
33 17 5
33 18 2
33 19 5
33 20 1
33 21 4
33 22 5
33 23 5
33 24 2
33 25 3
33 26 4
33 27 1
33 28 1
33 29 2
33 30 6
33 31 2
33 32 6
34 0 1
34 1 3
34 2 2
34 3 4
34 4 2
34 5 4
34 6 6
34 7 7
34 8 8
34 9 4
34 10 2
34 11 1
34 12 6
34 13 6
34 14 8
34 15 9
34 16 9
34 17 3
34 18 8
34 19 7
34 20 7
34 21 2
34 22 10
34 23 1
34 24 9
34 25 1
34 26 3
34 27 1
34 28 1
34 29 2
34 30 9
34 31 7
34 32 8
34 33 8
35 0 4
35 1 10
35 2 7
35 3 3
35 4 7
35 5 3
35 6 2
35 7 5
35 8 7
35 9 9
35 10 7
35 11 1
35 12 7
35 13 2
35 14 5
35 15 9
35 16 5
35 17 5
35 18 8
35 19 5
35 20 7
35 21 8
35 22 4
35 23 1
35 24 5
35 25 1
35 26 6
35 27 5
35 28 10
35 29 2
35 30 10
35 31 7
35 32 4
35 33 4
35 34 6
36 0 5
36 1 9
36 2 9
36 3 3
36 4 2
36 5 5
36 6 5
36 7 2
36 8 10
36 9 10
36 10 5
36 11 1
36 12 8
36 13 10
36 14 8
36 15 7
36 16 2
36 17 10
36 18 1
36 19 2
36 20 4
36 21 2
36 22 8
36 23 4
36 24 4
36 25 4
36 26 10
36 27 5
36 28 1
36 29 1
36 30 7
36 31 1
36 32 10
36 33 9
36 34 8
36 35 6
37 0 10
37 1 7
37 2 4
37 3 9
37 4 1
37 5 6
37 6 5
37 7 3
37 8 8
37 9 10
37 10 9
37 11 1
37 12 2
37 13 5
37 14 1
37 15 1
37 16 6
37 17 3
37 18 2
37 19 6
37 20 4
37 21 6
37 22 5
37 23 8
37 24 6
37 25 10
37 26 2
37 27 3
37 28 6
37 29 5
37 30 3
37 31 1
37 32 9
37 33 4
37 34 4
37 35 1
37 36 5
38 0 5
38 1 6
38 2 1
38 3 6
38 4 5
38 5 8
38 6 4
38 7 1
38 8 9
38 9 9
38 10 6
38 11 3
38 12 9
38 13 8
38 14 2
38 15 1
38 16 6
38 17 4
38 18 2
38 19 9
38 20 4
38 21 2
38 22 10
38 23 3
38 24 5
38 25 10
38 26 6
38 27 8
38 28 6
38 29 6
38 30 8
38 31 10
38 32 8
38 33 7
38 34 9
38 35 3
38 36 9
38 37 8
39 0 3
39 1 6
39 2 7
39 3 2
39 4 8
39 5 2
39 6 10
39 7 7
39 8 3
39 9 6
39 10 2
39 11 10
39 12 9
39 13 4
39 14 1
39 15 4
39 16 8
39 17 8
39 18 1
39 19 7
39 20 1
39 21 5
39 22 4
39 23 7
39 24 6
39 25 3
39 26 8
39 27 10
39 28 7
39 29 4
39 30 5
39 31 8
39 32 8
39 33 7
39 34 9
39 35 5
39 36 6
39 37 6
39 38 9
40 0 9
40 1 4
40 2 7
40 3 6
40 4 4
40 5 3
40 6 3
40 7 8
40 8 10
40 9 8
40 10 10
40 11 7
40 12 6
40 13 4
40 14 2
40 15 1
40 16 9
40 17 2
40 18 9
40 19 2
40 20 4
40 21 1
40 22 7
40 23 2
40 24 5
40 25 10
40 26 8
40 27 10
40 28 6
40 29 1
40 30 9
40 31 1
40 32 4
40 33 6
40 34 9
40 35 8
40 36 8
40 37 3
40 38 5
40 39 8
41 0 7
41 1 3
41 2 7
41 3 3
41 4 6
41 5 4
41 6 9
41 7 7
41 8 3
41 9 5
41 10 4
41 11 5
41 12 6
41 13 6
41 14 9
41 15 10
41 16 9
41 17 8
41 18 5
41 19 2
41 20 6
41 21 3
41 22 3
41 23 7
41 24 3
41 25 8
41 26 7
41 27 1
41 28 2
41 29 8
41 30 10
41 31 7
41 32 1
41 33 9
41 34 5
41 35 6
41 36 2
41 37 2
41 38 5
41 39 5
41 40 8
42 0 5
42 1 10
42 2 7
42 3 1
42 4 9
42 5 6
42 6 1
42 7 5
42 8 1
42 9 6
42 10 2
42 11 6
42 12 7
42 13 7
42 14 6
42 15 8
42 16 5
42 17 8
42 18 9
42 19 10
42 20 8
42 21 1
42 22 2
42 23 8
42 24 1
42 25 1
42 26 1
42 27 9
42 28 6
42 29 2
42 30 8
42 31 6
42 32 6
42 33 9
42 34 8
42 35 5
42 36 8
42 37 4
42 38 7
42 39 6
42 40 9
42 41 4
43 0 9
43 1 9
43 2 2
43 3 1
43 4 3
43 5 9
43 6 3
43 7 10
43 8 3
43 9 9
43 10 8
43 11 2
43 12 5
43 13 3
43 14 10
43 15 3
43 16 6
43 17 1
43 18 4
43 19 2
43 20 6
43 21 10
43 22 8
43 23 2
43 24 9
43 25 7
43 26 3
43 27 8
43 28 9
43 29 7
43 30 9
43 31 3
43 32 2
43 33 1
43 34 5
43 35 3
43 36 5
43 37 8
43 38 1
43 39 5
43 40 8
43 41 4
43 42 2
44 0 5
44 1 1
44 2 7
44 3 8
44 4 1
44 5 6
44 6 8
44 7 6
44 8 3
44 9 1
44 10 9
44 11 10
44 12 5
44 13 3
44 14 8
44 15 1
44 16 1
44 17 9
44 18 10
44 19 9
44 20 8
44 21 3
44 22 5
44 23 8
44 24 6
44 25 10
44 26 7
44 27 8
44 28 3
44 29 1
44 30 3
44 31 6
44 32 6
44 33 4
44 34 10
44 35 6
44 36 4
44 37 4
44 38 9
44 39 8
44 40 9
44 41 7
44 42 6
44 43 9
45 0 6
45 1 5
45 2 7
45 3 4
45 4 6
45 5 1
45 6 3
45 7 7
45 8 9
45 9 6
45 10 10
45 11 5
45 12 5
45 13 7
45 14 6
45 15 10
45 16 9
45 17 2
45 18 7
45 19 8
45 20 1
45 21 5
45 22 3
45 23 9
45 24 3
45 25 4
45 26 1
45 27 8
45 28 9
45 29 1
45 30 3
45 31 10
45 32 2
45 33 7
45 34 7
45 35 3
45 36 6
45 37 5
45 38 5
45 39 9
45 40 8
45 41 4
45 42 4
45 43 1
45 44 2
46 0 2
46 1 7
46 2 9
46 3 8
46 4 9
46 5 4
46 6 9
46 7 4
46 8 6
46 9 1
46 10 6
46 11 9
46 12 9
46 13 8
46 14 4
46 15 2
46 16 7
46 17 9
46 18 4
46 19 1
46 20 8
46 21 2
46 22 9
46 23 10
46 24 5
46 25 2
46 26 9
46 27 6
46 28 4
46 29 4
46 30 1
46 31 5
46 32 7
46 33 3
46 34 4
46 35 5
46 36 7
46 37 5
46 38 8
46 39 1
46 40 9
46 41 9
46 42 1
46 43 2
46 44 10
46 45 1
47 0 10
47 1 10
47 2 5
47 3 6
47 4 2
47 5 5
47 6 4
47 7 4
47 8 4
47 9 7
47 10 3
47 11 7
47 12 4
47 13 9
47 14 4
47 15 1
47 16 6
47 17 3
47 18 10
47 19 10
47 20 4
47 21 6
47 22 9
47 23 4
47 24 7
47 25 1
47 26 2
47 27 3
47 28 6
47 29 4
47 30 4
47 31 1
47 32 10
47 33 1
47 34 3
47 35 5
47 36 4
47 37 5
47 38 2
47 39 8
47 40 3
47 41 7
47 42 9
47 43 3
47 44 3
47 45 6
47 46 1
48 0 7
48 1 4
48 2 10
48 3 10
48 4 2
48 5 9
48 6 4
48 7 1
48 8 10
48 9 2
48 10 8
48 11 5
48 12 9
48 13 1
48 14 9
48 15 4
48 16 3
48 17 3
48 18 2
48 19 8
48 20 4
48 21 2
48 22 3
48 23 10
48 24 2
48 25 4
48 26 4
48 27 6
48 28 10
48 29 2
48 30 3
48 31 4
48 32 10
48 33 8
48 34 9
48 35 5
48 36 7
48 37 1
48 38 3
48 39 9
48 40 9
48 41 3
48 42 9
48 43 5
48 44 8
48 45 8
48 46 5
48 47 3
49 0 2
49 1 5
49 2 3
49 3 3
49 4 2
49 5 1
49 6 4
49 7 9
49 8 8
49 9 3
49 10 4
49 11 6
49 12 3
49 13 9
49 14 2
49 15 7
49 16 3
49 17 1
49 18 9
49 19 7
49 20 3
49 21 5
49 22 6
49 23 4
49 24 5
49 25 7
49 26 3
49 27 6
49 28 7
49 29 9
49 30 6
49 31 8
49 32 10
49 33 3
49 34 10
49 35 8
49 36 10
49 37 2
49 38 10
49 39 5
49 40 5
49 41 3
49 42 10
49 43 6
49 44 7
49 45 3
49 46 7
49 47 6
49 48 10
50 0 5
50 1 1
50 2 2
50 3 7
50 4 5
50 5 3
50 6 3
50 7 10
50 8 2
50 9 4
50 10 2
50 11 7
50 12 9
50 13 5
50 14 2
50 15 3
50 16 5
50 17 9
50 18 4
50 19 2
50 20 9
50 21 6
50 22 9
50 23 10
50 24 4
50 25 1
50 26 7
50 27 7
50 28 3
50 29 7
50 30 7
50 31 1
50 32 7
50 33 6
50 34 9
50 35 10
50 36 8
50 37 5
50 38 7
50 39 9
50 40 10
50 41 10
50 42 10
50 43 9
50 44 2
50 45 1
50 46 6
50 47 7
50 48 10
50 49 3
51 0 3
51 1 5
51 2 10
51 3 1
51 4 2
51 5 8
51 6 9
51 7 9
51 8 9
51 9 9
51 10 5
51 11 1
51 12 2
51 13 9
51 14 5
51 15 7
51 16 8
51 17 3
51 18 3
51 19 4
51 20 9
51 21 8
51 22 1
51 23 7
51 24 5
51 25 4
51 26 4
51 27 5
51 28 10
51 29 5
51 30 5
51 31 9
51 32 7
51 33 7
51 34 6
51 35 6
51 36 1
51 37 8
51 38 3
51 39 1
51 40 7
51 41 1
51 42 10
51 43 5
51 44 3
51 45 9
51 46 2
51 47 6
51 48 5
51 49 2
51 50 8
52 0 5
52 1 1
52 2 10
52 3 2
52 4 9
52 5 10
52 6 3
52 7 2
52 8 1
52 9 4
52 10 4
52 11 8
52 12 6
52 13 9
52 14 9
52 15 4
52 16 10
52 17 8
52 18 7
52 19 5
52 20 9
52 21 9
52 22 8
52 23 3
52 24 4
52 25 3
52 26 1
52 27 8
52 28 6
52 29 6
52 30 3
52 31 1
52 32 6
52 33 5
52 34 10
52 35 1
52 36 2
52 37 2
52 38 1
52 39 1
52 40 5
52 41 10
52 42 10
52 43 9
52 44 7
52 45 1
52 46 4
52 47 9
52 48 10
52 49 4
52 50 1
52 51 6
53 0 8
53 1 2
53 2 9
53 3 4
53 4 8
53 5 8
53 6 10
53 7 4
53 8 1
53 9 10
53 10 5
53 11 8
53 12 3
53 13 9
53 14 5
53 15 5
53 16 3
53 17 4
53 18 7
53 19 9
53 20 8
53 21 3
53 22 5
53 23 4
53 24 1
53 25 7
53 26 6
53 27 6
53 28 10
53 29 6
53 30 7
53 31 9
53 32 9
53 33 9
53 34 2
53 35 1
53 36 8
53 37 9
53 38 7
53 39 6
53 40 2
53 41 9
53 42 1
53 43 5
53 44 8
53 45 3
53 46 5
53 47 6
53 48 2
53 49 1
53 50 7
53 51 6
53 52 1
54 0 5
54 1 7
54 2 2
54 3 5
54 4 7
54 5 2
54 6 10
54 7 10
54 8 5
54 9 5
54 10 2
54 11 8
54 12 2
54 13 3
54 14 8
54 15 2
54 16 3
54 17 5
54 18 5
54 19 3
54 20 10
54 21 9
54 22 8
54 23 5
54 24 5
54 25 8
54 26 8
54 27 3
54 28 4
54 29 3
54 30 6
54 31 8
54 32 3
54 33 1
54 34 1
54 35 5
54 36 6
54 37 2
54 38 8
54 39 5
54 40 9
54 41 7
54 42 4
54 43 2
54 44 5
54 45 1
54 46 3
54 47 2
54 48 3
54 49 6
54 50 3
54 51 10
54 52 5
54 53 6
55 0 10
55 1 4
55 2 10
55 3 6
55 4 2
55 5 9
55 6 9
55 7 6
55 8 9
55 9 8
55 10 2
55 11 8
55 12 7
55 13 8
55 14 5
55 15 3
55 16 2
55 17 1
55 18 8
55 19 1
55 20 6
55 21 3
55 22 5
55 23 5
55 24 2
55 25 1
55 26 3
55 27 1
55 28 7
55 29 2
55 30 6
55 31 8
55 32 3
55 33 3
55 34 5
55 35 2
55 36 7
55 37 10
55 38 5
55 39 10
55 40 5
55 41 7
55 42 9
55 43 4
55 44 5
55 45 2
55 46 5
55 47 7
55 48 7
55 49 5
55 50 7
55 51 3
55 52 1
55 53 10
55 54 3
56 0 10
56 1 7
56 2 10
56 3 6
56 4 1
56 5 1
56 6 3
56 7 4
56 8 10
56 9 1
56 10 8
56 11 3
56 12 8
56 13 9
56 14 6
56 15 4
56 16 9
56 17 10
56 18 9
56 19 10
56 20 2
56 21 4
56 22 10
56 23 8
56 24 10
56 25 9
56 26 3
56 27 7
56 28 5
56 29 8
56 30 1
56 31 5
56 32 5
56 33 5
56 34 1
56 35 8
56 36 6
56 37 6
56 38 6
56 39 10
56 40 2
56 41 10
56 42 6
56 43 5
56 44 8
56 45 6
56 46 7
56 47 7
56 48 3
56 49 1
56 50 8
56 51 6
56 52 2
56 53 5
56 54 1
56 55 6
57 0 2
57 1 9
57 2 1
57 3 2
57 4 4
57 5 1
57 6 1
57 7 5
57 8 8
57 9 7
57 10 10
57 11 9
57 12 6
57 13 10
57 14 2
57 15 10
57 16 4
57 17 2
57 18 6
57 19 2
57 20 1
57 21 7
57 22 6
57 23 1
57 24 4
57 25 9
57 26 6
57 27 1
57 28 8
57 29 5
57 30 9
57 31 6
57 32 10
57 33 9
57 34 2
57 35 7
57 36 1
57 37 2
57 38 9
57 39 5
57 40 3
57 41 4
57 42 7
57 43 3
57 44 7
57 45 6
57 46 2
57 47 1
57 48 6
57 49 4
57 50 9
57 51 4
57 52 6
57 53 7
57 54 3
57 55 5
57 56 6
58 0 8
58 1 2
58 2 6
58 3 9
58 4 6
58 5 9
58 6 9
58 7 2
58 8 5
58 9 2
58 10 9
58 11 9
58 12 5
58 13 4
58 14 8
58 15 7
58 16 6
58 17 7
58 18 2
58 19 9
58 20 5
58 21 8
58 22 9
58 23 1
58 24 8
58 25 5
58 26 5
58 27 6
58 28 3
58 29 10
58 30 7
58 31 5
58 32 7
58 33 6
58 34 9
58 35 5
58 36 9
58 37 2
58 38 4
58 39 2
58 40 2
58 41 4
58 42 8
58 43 7
58 44 1
58 45 1
58 46 10
58 47 7
58 48 5
58 49 5
58 50 8
58 51 8
58 52 5
58 53 7
58 54 5
58 55 2
58 56 10
58 57 5
59 0 10
59 1 4
59 2 10
59 3 9
59 4 8
59 5 4
59 6 2
59 7 7
59 8 7
59 9 2
59 10 5
59 11 6
59 12 7
59 13 2
59 14 4
59 15 10
59 16 8
59 17 8
59 18 6
59 19 9
59 20 9
59 21 4
59 22 4
59 23 2
59 24 9
59 25 7
59 26 7
59 27 8
59 28 1
59 29 1
59 30 3
59 31 4
59 32 4
59 33 9
59 34 2
59 35 1
59 36 6
59 37 2
59 38 8
59 39 7
59 40 10
59 41 10
59 42 5
59 43 8
59 44 3
59 45 10
59 46 9
59 47 2
59 48 1
59 49 7
59 50 9
59 51 7
59 52 9
59 53 4
59 54 2
59 55 2
59 56 7
59 57 10
59 58 2
